50
0 1 0.7 0.19
0 2 0.72 0.18
0 3 0.6 0.18
0 4 0.48 0.18
0 5 0.44 0.21
0 6 0.63 0.1
0 7 0.65 0.1
0 8 0.36 0.02
0 9 0.53 0.24
0 10 0.64 0.2
0 11 0.71 0.29
0 12 0.64 0.16
0 13 0.64 0.21
0 14 0.58 0.22
0 15 0.18 0.08
0 16 0.52 0.12
0 17 0.76 0.14
0 18 0.25 0.12
0 19 0.55 0.08
0 20 0.42 0.1
0 21 0.55 0.22
0 22 0.54 0.07
0 23 0.61 0.11
0 24 0.67 0.2
0 25 0.46 0.14
0 26 0.4 0.12
0 27 0.63 0.28
0 28 0.68 0.18
0 29 0.49 0.2
0 30 0.58 0.18
0 31 0.78 0.12
0 32 0.44 0.2
0 33 0.5 0.19
0 34 0.57 0.18
0 35 0.63 0.18
0 36 0.42 0.2
0 37 0.32 0.27
0 38 0.44 0.11
0 39 0.52 0.33
0 40 0.64 0.16
0 41 0.62 0.2
0 42 0.56 0.13
0 43 0.56 0.27
0 44 0.58 0.15
0 45 0.38 0.26
0 46 0.37 0.17
0 47 0.38 0.14
0 48 0.51 0.13
0 49 0.46 0.16
1 2 0.52 0.27
1 3 0.68 0.12
1 4 0.69 0.19
1 5 0.4 0.2
1 6 0.66 0.11
1 7 0.54 0.13
1 8 0.78 0.19
1 9 0.38 0.24
1 10 0.6 0.2
1 11 0.66 0.2
1 12 0.56 0.23
1 13 0.64 0.15
1 14 0.52 0.23
1 15 0.67 0.11
1 16 0.75 0.14
1 17 0.62 0.15
1 18 0.49 0.15
1 19 0.52 0.18
1 20 0.54 0.13
1 21 0.19 0.09
1 22 0.58 0.17
1 23 0.51 0.13
1 24 0.66 0.23
1 25 0.65 0.18
1 26 0.71 0.14
1 27 0.52 0.25
1 28 0.52 0.19
1 29 0.72 0.13
1 30 0.46 0.14
1 31 0.54 0.15
1 32 0.68 0.26
1 33 0.39 0.16
1 34 0.74 0.13
1 35 0.72 0.18
1 36 0.5 0.07
1 37 0.43 0.28
1 38 0.54 0.21
1 39 0.32 0.14
1 40 0.67 0.21
1 41 0.52 0.14
1 42 0.54 0.15
1 43 0.61 0.29
1 44 0.36 0.09
1 45 0.63 0.17
1 46 0.44 0.16
1 47 0.68 0.24
1 48 0.53 0.13
1 49 0.72 0.03
2 3 0.67 0.24
2 4 0.36 0.26
2 5 0.38 0.33
2 6 0.71 0.2
2 7 0.71 0.16
2 8 0.74 0.16
2 9 0.6 0.24
2 10 0.69 0.34
2 11 0.52 0.21
2 12 0.55 0.27
2 13 0.56 0.16
2 14 0.71 0.29
2 15 0.54 0.18
2 16 0.76 0.25
2 17 0.32 0.16
2 18 0.56 0.22
2 19 0.66 0.22
2 20 0.47 0.2
2 21 0.45 0.26
2 22 0.56 0.14
2 23 0.63 0.18
2 24 0.46 0.06
2 25 0.58 0.21
2 26 0.38 0.26
2 27 0.52 0.3
2 28 0.49 0.3
2 29 0.52 0.14
2 30 0.66 0.26
2 31 0.42 0.22
2 32 0.66 0.27
2 33 0.65 0.26
2 34 0.37 0.28
2 35 0.48 0.19
2 36 0.51 0.28
2 37 0.58 0.1
2 38 0.64 0.18
2 39 0.64 0.28
2 40 0.62 0.3
2 41 0.62 0.28
2 42 0.56 0.24
2 43 0.62 0.2
2 44 0.35 0.21
2 45 0.79 0.35
2 46 0.44 0.11
2 47 0.79 0.28
2 48 0.39 0.17
2 49 0.71 0.24
3 4 0.33 0.15
3 5 0.69 0.22
3 6 0.64 0.22
3 7 0.76 0.15
3 8 0.77 0.2
3 9 0.48 0.28
3 10 0.55 0.26
3 11 0.44 0.2
3 12 0.52 0.17
3 13 0.44 0.26
3 14 0.83 0.23
3 15 0.68 0.13
3 16 0.71 0.14
3 17 0.64 0.21
3 18 0.46 0.13
3 19 0.34 0.12
3 20 0.5 0.11
3 21 0.5 0.2
3 22 0.65 0.11
3 23 0.71 0.07
3 24 0.49 0.25
3 25 0.31 0.06
3 26 0.62 0.17
3 27 0.58 0.29
3 28 0.6 0.2
3 29 0.7 0.24
3 30 0.74 0.23
3 31 0.59 0.15
3 32 0.63 0.32
3 33 0.32 0.13
3 34 0.32 0.09
3 35 0.73 0.25
3 36 0.51 0.19
3 37 0.44 0.27
3 38 0.6 0.15
3 39 0.74 0.26
3 40 0.54 0.17
3 41 0.51 0.11
3 42 0.6 0.15
3 43 0.71 0.24
3 44 0.32 0.03
3 45 0.7 0.29
3 46 0.64 0.21
3 47 0.6 0.16
3 48 0.84 0.07
3 49 0.74 0.15
4 5 0.48 0.25
4 6 0.54 0.08
4 7 0.62 0.19
4 8 0.72 0.16
4 9 0.37 0.31
4 10 0.52 0.23
4 11 0.72 0.3
4 12 0.7 0.19
4 13 0.68 0.21
4 14 0.5 0.29
4 15 0.54 0.21
4 16 0.66 0.22
4 17 0.68 0.12
4 18 0.36 0.22
4 19 0.5 0.14
4 20 0.52 0.2
4 21 0.5 0.16
4 22 0.47 0.2
4 23 0.4 0.16
4 24 0.76 0.29
4 25 0.64 0.21
4 26 0.56 0.22
4 27 0.74 0.31
4 28 0.52 0.25
4 29 0.46 0.23
4 30 0.46 0.28
4 31 0.7 0.19
4 32 0.62 0.32
4 33 0.3 0.09
4 34 0.32 0.24
4 35 0.66 0.18
4 36 0.49 0.26
4 37 0.6 0.34
4 38 0.58 0.17
4 39 0.64 0.16
4 40 0.46 0.27
4 41 0.54 0.14
4 42 0.68 0.23
4 43 0.38 0.26
4 44 0.59 0.12
4 45 0.67 0.31
4 46 0.53 0.26
4 47 0.48 0.21
4 48 0.75 0.09
4 49 0.68 0.22
5 6 0.66 0.24
5 7 0.66 0.19
5 8 0.46 0.23
5 9 0.46 0.32
5 10 0.71 0.24
5 11 0.62 0.26
5 12 0.67 0.13
5 13 0.63 0.17
5 14 0.37 0.22
5 15 0.62 0.17
5 16 0.44 0.21
5 17 0.7 0.28
5 18 0.69 0.13
5 19 0.59 0.21
5 20 0.77 0.19
5 21 0.5 0.12
5 22 0.49 0.28
5 23 0.56 0.24
5 24 0.54 0.29
5 25 0.76 0.28
5 26 0.57 0.15
5 27 0.82 0.25
5 28 0.5 0.27
5 29 0.67 0.19
5 30 0.86 0.21
5 31 0.52 0.21
5 32 0.67 0.28
5 33 0.48 0.19
5 34 0.6 0.13
5 35 0.66 0.14
5 36 0.86 0.22
5 37 0.74 0.31
5 38 0.51 0.26
5 39 0.72 0.34
5 40 0.68 0.05
5 41 0.54 0.23
5 42 0.54 0.22
5 43 0.71 0.31
5 44 0.73 0.2
5 45 0.45 0.23
5 46 0.62 0.22
5 47 0.72 0.11
5 48 0.39 0.16
5 49 0.61 0.18
6 7 0.24 0.11
6 8 0.6 0.08
6 9 0.5 0.28
6 10 0.81 0.26
6 11 0.5 0.22
6 12 0.26 0.22
6 13 0.41 0.13
6 14 0.66 0.21
6 15 0.65 0.13
6 16 0.44 0.18
6 17 0.63 0.04
6 18 0.66 0.17
6 19 0.6 0.18
6 20 0.62 0.13
6 21 0.72 0.2
6 22 0.58 0.17
6 23 0.58 0.21
6 24 0.64 0.21
6 25 0.77 0.24
6 26 0.58 0.18
6 27 0.7 0.24
6 28 0.74 0.17
6 29 0.63 0.15
6 30 0.5 0.24
6 31 0.68 0.11
6 32 0.63 0.24
6 33 0.52 0.17
6 34 0.51 0.24
6 35 0.72 0.1
6 36 0.72 0.18
6 37 0.7 0.3
6 38 0.49 0.21
6 39 0.58 0.24
6 40 0.49 0.25
6 41 0.34 0.2
6 42 0.48 0.19
6 43 0.52 0.27
6 44 0.46 0.19
6 45 0.62 0.23
6 46 0.66 0.18
6 47 0.25 0.2
6 48 0.53 0.17
6 49 0.72 0.14
7 8 0.58 0.12
7 9 0.66 0.27
7 10 0.67 0.24
7 11 0.47 0.26
7 12 0.5 0.22
7 13 0.6 0.22
7 14 0.7 0.16
7 15 0.47 0.02
7 16 0.45 0.21
7 17 0.39 0.15
7 18 0.54 0.06
7 19 0.66 0.18
7 20 0.5 0.04
7 21 0.68 0.16
7 22 0.58 0.17
7 23 0.65 0.16
7 24 0.4 0.1
7 25 0.7 0.21
7 26 0.71 0.16
7 27 0.65 0.31
7 28 0.54 0.26
7 29 0.77 0.2
7 30 0.54 0.22
7 31 0.73 0.06
7 32 0.66 0.3
7 33 0.52 0.23
7 34 0.75 0.2
7 35 0.73 0.21
7 36 0.62 0.14
7 37 0.71 0.22
7 38 0.46 0.21
7 39 0.34 0.27
7 40 0.28 0.14
7 41 0.58 0.16
7 42 0.24 0.2
7 43 0.41 0.22
7 44 0.62 0.12
7 45 0.44 0.2
7 46 0.64 0.2
7 47 0.49 0.2
7 48 0.65 0.14
7 49 0.48 0.1
8 9 0.58 0.26
8 10 0.55 0.18
8 11 0.78 0.27
8 12 0.59 0.14
8 13 0.65 0.19
8 14 0.68 0.24
8 15 0.53 0.1
8 16 0.19 0.1
8 17 0.58 0.12
8 18 0.61 0.14
8 19 0.67 0.1
8 20 0.5 0.12
8 21 0.67 0.24
8 22 0.57 0.09
8 23 0.5 0.13
8 24 0.56 0.22
8 25 0.64 0.16
8 26 0.5 0.1
8 27 0.59 0.26
8 28 0.69 0.16
8 29 0.74 0.21
8 30 0.62 0.16
8 31 0.58 0.14
8 32 0.4 0.18
8 33 0.55 0.21
8 34 0.54 0.18
8 35 0.47 0.16
8 36 0.46 0.22
8 37 0.53 0.25
8 38 0.27 0.13
8 39 0.59 0.32
8 40 0.57 0.18
8 41 0.26 0.18
8 42 0.4 0.11
8 43 0.55 0.27
8 44 0.65 0.17
8 45 0.6 0.28
8 46 0.64 0.19
8 47 0.6 0.12
8 48 0.38 0.15
8 49 0.63 0.18
9 10 0.46 0.25
9 11 0.69 0.42
9 12 0.59 0.29
9 13 0.39 0.18
9 14 0.7 0.26
9 15 0.46 0.29
9 16 0.69 0.29
9 17 0.63 0.32
9 18 0.54 0.27
9 19 0.46 0.32
9 20 0.62 0.3
9 21 0.42 0.3
9 22 0.5 0.17
9 23 0.43 0.21
9 24 0.62 0.26
9 25 0.54 0.24
9 26 0.53 0.26
9 27 0.52 0.22
9 28 0.5 0.35
9 29 0.56 0.16
9 30 0.54 0.32
9 31 0.65 0.26
9 32 0.65 0.29
9 33 0.62 0.29
9 34 0.69 0.34
9 35 0.68 0.18
9 36 0.4 0.3
9 37 0.64 0.34
9 38 0.64 0.21
9 39 0.32 0.17
9 40 0.65 0.33
9 41 0.54 0.34
9 42 0.48 0.28
9 43 0.35 0.12
9 44 0.74 0.25
9 45 0.65 0.32
9 46 0.16 0.13
9 47 0.4 0.27
9 48 0.44 0.29
9 49 0.62 0.26
10 11 0.71 0.39
10 12 0.73 0.27
10 13 0.55 0.2
10 14 0.55 0.28
10 15 0.75 0.22
10 16 0.64 0.28
10 17 0.79 0.3
10 18 0.72 0.18
10 19 0.21 0.21
10 20 0.74 0.23
10 21 0.42 0.21
10 22 0.55 0.26
10 23 0.48 0.22
10 24 0.74 0.34
10 25 0.7 0.24
10 26 0.42 0.09
10 27 0.64 0.32
10 28 0.47 0.33
10 29 0.82 0.22
10 30 0.74 0.15
10 31 0.54 0.19
10 32 0.79 0.31
10 33 0.54 0.14
10 34 0.72 0.17
10 35 0.46 0.23
10 36 0.66 0.21
10 37 0.66 0.31
10 38 0.64 0.22
10 39 0.72 0.34
10 40 0.74 0.25
10 41 0.64 0.17
10 42 0.43 0.29
10 43 0.66 0.22
10 44 0.67 0.26
10 45 0.38 0.22
10 46 0.42 0.25
10 47 0.69 0.25
10 48 0.76 0.26
10 49 0.52 0.17
11 12 0.59 0.17
11 13 0.58 0.33
11 14 0.6 0.27
11 15 0.62 0.24
11 16 0.63 0.18
11 17 0.2 0.18
11 18 0.74 0.28
11 19 0.5 0.3
11 20 0.72 0.24
11 21 0.63 0.26
11 22 0.72 0.31
11 23 0.78 0.27
11 24 0.66 0.26
11 25 0.68 0.26
11 26 0.54 0.3
11 27 0.74 0.29
11 28 0.24 0.12
11 29 0.62 0.33
11 30 0.67 0.25
11 31 0.52 0.2
11 32 0.56 0.31
11 33 0.46 0.33
11 34 0.66 0.29
11 35 0.36 0.3
11 36 0.42 0.24
11 37 0.7 0.31
11 38 0.52 0.28
11 39 0.56 0.34
11 40 0.42 0.21
11 41 0.76 0.31
11 42 0.42 0.19
11 43 0.56 0.35
11 44 0.62 0.23
11 45 0.54 0.3
11 46 0.76 0.32
11 47 0.7 0.15
11 48 0.58 0.27
11 49 0.43 0.23
12 13 0.2 0.18
12 14 0.46 0.14
12 15 0.46 0.2
12 16 0.68 0.23
12 17 0.64 0.26
12 18 0.51 0.16
12 19 0.52 0.15
12 20 0.38 0.22
12 21 0.68 0.25
12 22 0.63 0.17
12 23 0.56 0.18
12 24 0.52 0.28
12 25 0.67 0.23
12 26 0.44 0.18
12 27 0.58 0.12
12 28 0.68 0.29
12 29 0.71 0.2
12 30 0.24 0.12
12 31 0.62 0.24
12 32 0.37 0.18
12 33 0.59 0.21
12 34 0.74 0.16
12 35 0.62 0.21
12 36 0.48 0.29
12 37 0.44 0.28
12 38 0.32 0.13
12 39 0.6 0.26
12 40 0.74 0.08
12 41 0.53 0.26
12 42 0.62 0.24
12 43 0.61 0.22
12 44 0.2 0.14
12 45 0.46 0.2
12 46 0.64 0.23
12 47 0.51 0.02
12 48 0.68 0.1
12 49 0.6 0.25
13 14 0.54 0.14
13 15 0.66 0.2
13 16 0.56 0.2
13 17 0.46 0.17
13 18 0.71 0.19
13 19 0.64 0.29
13 20 0.58 0.22
13 21 0.65 0.16
13 22 0.53 0.15
13 23 0.46 0.19
13 24 0.72 0.22
13 25 0.48 0.22
13 26 0.28 0.23
13 27 0.76 0.24
13 28 0.56 0.26
13 29 0.52 0.02
13 30 0.44 0.2
13 31 0.6 0.24
13 32 0.57 0.11
13 33 0.62 0.2
13 34 0.58 0.22
13 35 0.72 0.03
13 36 0.58 0.16
13 37 0.64 0.26
13 38 0.52 0.17
13 39 0.71 0.29
13 40 0.86 0.22
13 41 0.52 0.29
13 42 0.54 0.21
13 43 0.74 0.14
13 44 0.4 0.23
13 45 0.26 0.2
13 46 0.55 0.05
13 47 0.66 0.2
13 48 0.55 0.27
13 49 0.5 0.12
14 15 0.4 0.14
14 16 0.54 0.28
14 17 0.66 0.25
14 18 0.42 0.1
14 19 0.6 0.25
14 20 0.62 0.16
14 21 0.65 0.14
14 22 0.51 0.25
14 23 0.44 0.24
14 24 0.52 0.23
14 25 0.78 0.28
14 26 0.52 0.2
14 27 0.5 0.15
14 28 0.58 0.24
14 29 0.56 0.16
14 30 0.62 0.22
14 31 0.5 0.18
14 32 0.72 0.25
14 33 0.66 0.21
14 34 0.68 0.26
14 35 0.54 0.11
14 36 0.55 0.24
14 37 0.63 0.3
14 38 0.61 0.25
14 39 0.42 0.18
14 40 0.64 0.18
14 41 0.76 0.28
14 42 0.73 0.29
14 43 0.66 0.25
14 44 0.56 0.2
14 45 0.28 0.06
14 46 0.54 0.19
14 47 0.66 0.12
14 48 0.32 0.2
14 49 0.33 0.2
15 16 0.34 0.19
15 17 0.71 0.17
15 18 0.42 0.04
15 19 0.62 0.16
15 20 0.24 0.02
15 21 0.48 0.14
15 22 0.72 0.15
15 23 0.79 0.14
15 24 0.56 0.12
15 25 0.38 0.19
15 26 0.58 0.14
15 27 0.45 0.29
15 28 0.7 0.24
15 29 0.48 0.18
15 30 0.51 0.2
15 31 0.6 0.04
15 32 0.48 0.28
15 33 0.43 0.21
15 34 0.75 0.18
15 35 0.62 0.23
15 36 0.6 0.12
15 37 0.24 0.2
15 38 0.62 0.19
15 39 0.7 0.25
15 40 0.64 0.12
15 41 0.74 0.18
15 42 0.55 0.2
15 43 0.74 0.2
15 44 0.42 0.1
15 45 0.48 0.18
15 46 0.48 0.18
15 47 0.4 0.18
15 48 0.33 0.14
15 49 0.54 0.08
16 17 0.59 0.22
16 18 0.48 0.23
16 19 0.53 0.17
16 20 0.52 0.21
16 21 0.59 0.17
16 22 0.58 0.14
16 23 0.65 0.18
16 24 0.66 0.28
16 25 0.6 0.13
16 26 0.69 0.2
16 27 0.59 0.26
16 28 0.51 0.06
16 29 0.68 0.21
16 30 0.76 0.26
16 31 0.57 0.23
16 32 0.59 0.28
16 33 0.39 0.18
16 34 0.41 0.21
16 35 0.28 0.17
16 36 0.61 0.15
16 37 0.48 0.15
16 38 0.37 0.1
16 39 0.56 0.28
16 40 0.64 0.16
16 41 0.45 0.25
16 42 0.21 0.01
16 43 0.51 0.17
16 44 0.7 0.17
16 45 0.58 0.24
16 46 0.58 0.24
16 47 0.58 0.22
16 48 0.57 0.21
16 49 0.6 0.11
17 18 0.57 0.21
17 19 0.7 0.22
17 20 0.52 0.17
17 21 0.43 0.24
17 22 0.8 0.21
17 23 0.75 0.22
17 24 0.6 0.22
17 25 0.5 0.27
17 26 0.7 0.22
17 27 0.74 0.2
17 28 0.44 0.21
17 29 0.75 0.19
17 30 0.47 0.22
17 31 0.54 0.15
17 32 0.6 0.28
17 33 0.6 0.21
17 34 0.46 0.28
17 35 0.56 0.14
17 36 0.46 0.22
17 37 0.6 0.26
17 38 0.32 0.17
17 39 0.73 0.28
17 40 0.59 0.29
17 41 0.56 0.24
17 42 0.61 0.23
17 43 0.4 0.3
17 44 0.46 0.18
17 45 0.54 0.27
17 46 0.62 0.22
17 47 0.5 0.24
17 48 0.38 0.21
17 49 0.54 0.18
18 19 0.63 0.19
18 20 0.4 0.06
18 21 0.3 0.18
18 22 0.55 0.18
18 23 0.48 0.14
18 24 0.73 0.16
18 25 0.52 0.18
18 26 0.64 0.1
18 27 0.52 0.25
18 28 0.6 0.28
18 29 0.74 0.17
18 30 0.66 0.16
18 31 0.86 0.08
18 32 0.59 0.3
18 33 0.45 0.25
18 34 0.62 0.16
18 35 0.38 0.21
18 36 0.48 0.16
18 37 0.54 0.24
18 38 0.58 0.22
18 39 0.76 0.28
18 40 0.46 0.08
18 41 0.76 0.18
18 42 0.69 0.24
18 43 0.65 0.24
18 44 0.33 0.1
18 45 0.45 0.16
18 46 0.38 0.14
18 47 0.6 0.14
18 48 0.56 0.14
18 49 0.58 0.12
19 20 0.66 0.17
19 21 0.6 0.27
19 22 0.51 0.15
19 23 0.44 0.13
19 24 0.74 0.28
19 25 0.65 0.18
19 26 0.36 0.2
19 27 0.76 0.27
19 28 0.26 0.18
19 29 0.82 0.28
19 30 0.74 0.14
19 31 0.54 0.2
19 32 0.58 0.28
19 33 0.4 0.23
19 34 0.54 0.21
19 35 0.67 0.26
19 36 0.59 0.25
19 37 0.56 0.3
19 38 0.5 0.19
19 39 0.68 0.3
19 40 0.58 0.23
19 41 0.6 0.23
19 42 0.56 0.16
19 43 0.8 0.32
19 44 0.66 0.09
19 45 0.5 0.31
19 46 0.62 0.25
19 47 0.85 0.17
19 48 0.68 0.05
19 49 0.42 0.21
20 21 0.46 0.16
20 22 0.5 0.16
20 23 0.57 0.12
20 24 0.58 0.14
20 25 0.62 0.17
20 26 0.74 0.14
20 27 0.62 0.27
20 28 0.66 0.26
20 29 0.72 0.2
20 30 0.62 0.2
20 31 0.46 0.04
20 32 0.72 0.3
20 33 0.54 0.23
20 34 0.56 0.2
20 35 0.78 0.23
20 36 0.64 0.14
20 37 0.48 0.22
20 38 0.56 0.2
20 39 0.54 0.27
20 40 0.78 0.14
20 41 0.76 0.2
20 42 0.46 0.22
20 43 0.6 0.2
20 44 0.18 0.08
20 45 0.54 0.18
20 46 0.69 0.2
20 47 0.52 0.2
20 48 0.38 0.12
20 49 0.74 0.1
21 22 0.39 0.19
21 23 0.32 0.22
21 24 0.59 0.26
21 25 0.46 0.26
21 26 0.52 0.23
21 27 0.64 0.16
21 28 0.5 0.21
21 29 0.64 0.14
21 30 0.65 0.23
21 31 0.73 0.18
21 32 0.54 0.25
21 33 0.2 0.07
21 34 0.68 0.16
21 35 0.68 0.19
21 36 0.46 0.1
21 37 0.24 0.2
21 38 0.4 0.15
21 39 0.51 0.23
21 40 0.48 0.17
21 41 0.66 0.23
21 42 0.72 0.18
21 43 0.42 0.26
21 44 0.55 0.18
21 45 0.44 0.2
21 46 0.58 0.17
21 47 0.49 0.23
21 48 0.34 0.22
21 49 0.54 0.06
22 23 0.07 0.04
22 24 0.29 0.14
22 25 0.34 0.07
22 26 0.41 0.19
22 27 0.48 0.29
22 28 0.61 0.2
22 29 0.79 0.13
22 30 0.64 0.25
22 31 0.65 0.19
22 32 0.56 0.26
22 33 0.59 0.12
22 34 0.71 0.2
22 35 0.81 0.14
22 36 0.65 0.24
22 37 0.63 0.24
22 38 0.65 0.04
22 39 0.47 0.31
22 40 0.54 0.23
22 41 0.61 0.22
22 42 0.56 0.15
22 43 0.66 0.22
22 44 0.46 0.08
22 45 0.74 0.22
22 46 0.52 0.1
22 47 0.53 0.19
22 48 0.7 0.12
22 49 0.5 0.2
23 24 0.36 0.18
23 25 0.41 0.11
23 26 0.48 0.23
23 27 0.55 0.3
23 28 0.54 0.24
23 29 0.84 0.17
23 30 0.71 0.27
23 31 0.72 0.16
23 32 0.49 0.25
23 33 0.52 0.16
23 34 0.72 0.16
23 35 0.86 0.18
23 36 0.72 0.2
23 37 0.56 0.28
23 38 0.58 0.08
23 39 0.54 0.27
23 40 0.49 0.22
23 41 0.54 0.18
23 42 0.52 0.19
23 43 0.73 0.26
23 44 0.39 0.04
23 45 0.68 0.26
23 46 0.5 0.14
23 47 0.46 0.2
23 48 0.63 0.08
23 49 0.57 0.16
24 25 0.63 0.21
24 26 0.7 0.26
24 27 0.56 0.36
24 28 0.64 0.34
24 29 0.87 0.2
24 30 0.72 0.3
24 31 0.36 0.16
24 32 0.36 0.32
24 33 0.46 0.26
24 34 0.51 0.3
24 35 0.78 0.25
24 36 0.36 0.24
24 37 0.35 0.14
24 38 0.63 0.18
24 39 0.53 0.28
24 40 0.54 0.24
24 41 0.54 0.26
24 42 0.45 0.28
24 43 0.66 0.26
24 44 0.4 0.22
24 45 0.66 0.29
24 46 0.69 0.17
24 47 0.49 0.26
24 48 0.84 0.23
24 49 0.42 0.2
25 26 0.7 0.23
25 27 0.68 0.35
25 28 0.5 0.19
25 29 0.68 0.2
25 30 0.43 0.29
25 31 0.67 0.21
25 32 0.55 0.33
25 33 0.63 0.19
25 34 0.63 0.15
25 35 0.74 0.21
25 36 0.64 0.25
25 37 0.62 0.26
25 38 0.82 0.11
25 39 0.62 0.32
25 40 0.73 0.23
25 41 0.76 0.17
25 42 0.59 0.12
25 43 0.85 0.28
25 44 0.62 0.09
25 45 0.74 0.29
25 46 0.38 0.17
25 47 0.78 0.22
25 48 0.54 0.13
25 49 0.5 0.21
26 27 0.7 0.3
26 28 0.4 0.26
26 29 0.62 0.25
26 30 0.4 0.06
26 31 0.51 0.1
26 32 0.7 0.28
26 33 0.5 0.23
26 34 0.3 0.08
26 35 0.8 0.23
26 36 0.54 0.21
26 37 0.64 0.22
26 38 0.76 0.23
26 39 0.72 0.27
26 40 0.58 0.16
26 41 0.24 0.08
26 42 0.5 0.21
26 43 0.75 0.26
26 44 0.64 0.2
26 45 0.54 0.24
26 46 0.37 0.24
26 47 0.65 0.16
26 48 0.68 0.24
26 49 0.37 0.17
27 28 0.51 0.32
27 29 0.76 0.26
27 30 0.8 0.24
27 31 0.65 0.26
27 32 0.78 0.17
27 33 0.76 0.23
27 34 0.55 0.25
27 35 0.5 0.26
27 36 0.54 0.26
27 37 0.69 0.36
27 38 0.48 0.25
27 39 0.74 0.33
27 40 0.64 0.2
27 41 0.64 0.28
27 42 0.77 0.26
27 43 0.59 0.1
27 44 0.6 0.26
27 45 0.68 0.21
27 46 0.4 0.29
27 47 0.54 0.14
27 48 0.5 0.22
27 49 0.46 0.22
28 29 0.66 0.26
28 30 0.64 0.32
28 31 0.28 0.25
28 32 0.8 0.34
28 33 0.64 0.24
28 34 0.65 0.24
28 35 0.6 0.23
28 36 0.66 0.12
28 37 0.46 0.21
28 38 0.72 0.16
28 39 0.56 0.32
28 40 0.66 0.22
28 41 0.64 0.26
28 42 0.3 0.07
28 43 0.58 0.23
28 44 0.48 0.22
28 45 0.3 0.18
28 46 0.66 0.24
28 47 0.6 0.27
28 48 0.54 0.23
28 49 0.47 0.16
29 30 0.68 0.22
29 31 0.74 0.22
29 32 0.51 0.13
29 33 0.7 0.18
29 34 0.58 0.2
29 35 0.62 0.05
29 36 0.73 0.14
29 37 0.72 0.24
29 38 0.7 0.17
29 39 0.86 0.27
29 40 0.77 0.24
29 41 0.48 0.27
29 42 0.53 0.22
29 43 0.54 0.16
29 44 0.74 0.21
29 45 0.44 0.22
29 46 0.5 0.03
29 47 0.38 0.22
29 48 0.48 0.25
29 49 0.68 0.1
30 31 0.38 0.16
30 32 0.51 0.3
30 33 0.66 0.29
30 34 0.52 0.14
30 35 0.52 0.17
30 36 0.64 0.21
30 37 0.68 0.16
30 38 0.56 0.25
30 39 0.36 0.21
30 40 0.8 0.16
30 41 0.46 0.14
30 42 0.55 0.27
30 43 0.68 0.32
30 44 0.44 0.23
30 45 0.7 0.28
30 46 0.7 0.25
30 47 0.6 0.1
30 48 0.56 0.19
30 49 0.76 0.17
31 32 0.54 0.32
31 33 0.62 0.25
31 34 0.56 0.18
31 35 0.85 0.21
31 36 0.5 0.16
31 37 0.71 0.24
31 38 0.44 0.23
31 39 0.54 0.24
31 40 0.72 0.16
31 41 0.5 0.18
31 42 0.52 0.24
31 43 0.69 0.16
31 44 0.54 0.12
31 45 0.45 0.14
31 46 0.81 0.22
31 47 0.69 0.22
31 48 0.6 0.16
31 49 0.69 0.12
32 33 0.34 0.31
32 34 0.52 0.33
32 35 0.55 0.14
32 36 0.72 0.27
32 37 0.58 0.37
32 38 0.62 0.28
32 39 0.68 0.38
32 40 0.72 0.26
32 41 0.5 0.36
32 42 0.6 0.29
32 43 0.3 0.18
32 44 0.57 0.29
32 45 0.56 0.31
32 46 0.76 0.16
32 47 0.6 0.2
32 48 0.7 0.25
32 49 0.68 0.23
33 34 0.62 0.22
33 35 0.67 0.22
33 36 0.54 0.17
33 37 0.44 0.27
33 38 0.28 0.08
33 39 0.52 0.25
33 40 0.68 0.24
33 41 0.74 0.23
33 42 0.6 0.19
33 43 0.62 0.33
33 44 0.62 0.16
33 45 0.64 0.27
33 46 0.59 0.21
33 47 0.62 0.23
33 48 0.54 0.18
33 49 0.6 0.13
34 35 0.69 0.25
34 36 0.7 0.14
34 37 0.74 0.18
34 38 0.78 0.24
34 39 0.42 0.27
34 40 0.52 0.08
34 41 0.38 0.16
34 42 0.62 0.22
34 43 0.64 0.33
34 44 0.57 0.12
34 45 0.58 0.24
34 46 0.67 0.23
34 47 0.63 0.14
34 48 0.67 0.16
34 49 0.44 0.1
35 36 0.58 0.19
35 37 0.64 0.29
35 38 0.61 0.14
35 39 0.47 0.26
35 40 0.66 0.19
35 41 0.72 0.3
35 42 0.49 0.18
35 43 0.54 0.17
35 44 0.71 0.22
35 45 0.46 0.17
35 46 0.58 0.08
35 47 0.86 0.22
35 48 0.54 0.26
35 49 0.6 0.15
36 37 0.47 0.29
36 38 0.66 0.25
36 39 0.28 0.2
36 40 0.56 0.22
36 41 0.38 0.21
36 42 0.76 0.16
36 43 0.74 0.3
36 44 0.5 0.16
36 45 0.59 0.18
36 46 0.54 0.17
36 47 0.58 0.27
36 48 0.68 0.2
36 49 0.64 0.04
37 38 0.64 0.25
37 39 0.59 0.18
37 40 0.43 0.26
37 41 0.77 0.3
37 42 0.68 0.14
37 43 0.53 0.3
37 44 0.64 0.3
37 45 0.54 0.27
37 46 0.48 0.21
37 47 0.55 0.26
37 48 0.57 0.27
37 49 0.3 0.25
38 39 0.66 0.33
38 40 0.54 0.21
38 41 0.52 0.26
38 42 0.58 0.11
38 43 0.45 0.26
38 44 0.38 0.12
38 45 0.78 0.26
38 46 0.48 0.14
38 47 0.62 0.15
38 48 0.65 0.16
38 49 0.7 0.21
39 40 0.52 0.34
39 41 0.62 0.24
39 42 0.58 0.29
39 43 0.46 0.29
39 44 0.68 0.23
39 45 0.66 0.24
39 46 0.48 0.3
39 47 0.58 0.28
39 48 0.46 0.25
39 49 0.75 0.17
40 41 0.34 0.24
40 42 0.43 0.17
40 43 0.64 0.26
40 44 0.64 0.18
40 45 0.62 0.18
40 46 0.49 0.22
40 47 0.74 0.06
40 48 0.82 0.18
40 49 0.5 0.18
41 42 0.66 0.26
41 43 0.8 0.34
41 44 0.69 0.14
41 45 0.72 0.31
41 46 0.38 0.3
41 47 0.59 0.24
41 48 0.64 0.18
41 49 0.61 0.17
42 43 0.3 0.16
42 44 0.62 0.18
42 45 0.56 0.25
42 46 0.64 0.25
42 47 0.4 0.23
42 48 0.52 0.21
42 49 0.68 0.12
43 44 0.61 0.27
43 45 0.62 0.3
43 46 0.51 0.19
43 47 0.62 0.24
43 48 0.7 0.31
43 49 0.38 0.26
44 45 0.66 0.26
44 46 0.71 0.18
44 47 0.61 0.16
44 48 0.56 0.04
44 49 0.6 0.12
45 46 0.62 0.25
45 47 0.58 0.18
45 48 0.52 0.26
45 49 0.24 0.14
46 47 0.56 0.25
46 48 0.6 0.22
46 49 0.46 0.13
47 48 0.73 0.12
47 49 0.64 0.23
48 49 0.5 0.16
